certificates/rado_a17_c15_N57.cnf
c Rad2 upper bound instance: x1 + 17*x2 - x3 = 15, interval [1,57]
p cnf 57 236
1 3 0
-1 -3 0
1 2 20 0
-1 -2 -20 0
1 3 37 0
-1 -3 -37 0
1 4 54 0
-1 -4 -54 0
1 2 4 0
-1 -2 -4 0
2 21 0
-2 -21 0
2 3 38 0
-2 -3 -38 0
2 4 55 0
-2 -4 -55 0
1 3 5 0
-1 -3 -5 0
2 3 22 0
-2 -3 -22 0
3 39 0
-3 -39 0
3 4 56 0
-3 -4 -56 0
1 4 6 0
-1 -4 -6 0
2 4 23 0
-2 -4 -23 0
3 4 40 0
-3 -4 -40 0
4 57 0
-4 -57 0
1 5 7 0
-1 -5 -7 0
2 5 24 0
-2 -5 -24 0
3 5 41 0
-3 -5 -41 0
1 6 8 0
-1 -6 -8 0
2 6 25 0
-2 -6 -25 0
3 6 42 0
-3 -6 -42 0
1 7 9 0
-1 -7 -9 0
2 7 26 0
-2 -7 -26 0
3 7 43 0
-3 -7 -43 0
1 8 10 0
-1 -8 -10 0
2 8 27 0
-2 -8 -27 0
3 8 44 0
-3 -8 -44 0
1 9 11 0
-1 -9 -11 0
2 9 28 0
-2 -9 -28 0
3 9 45 0
-3 -9 -45 0
1 10 12 0
-1 -10 -12 0
2 10 29 0
-2 -10 -29 0
3 10 46 0
-3 -10 -46 0
1 11 13 0
-1 -11 -13 0
2 11 30 0
-2 -11 -30 0
3 11 47 0
-3 -11 -47 0
1 12 14 0
-1 -12 -14 0
2 12 31 0
-2 -12 -31 0
3 12 48 0
-3 -12 -48 0
1 13 15 0
-1 -13 -15 0
2 13 32 0
-2 -13 -32 0
3 13 49 0
-3 -13 -49 0
1 14 16 0
-1 -14 -16 0
2 14 33 0
-2 -14 -33 0
3 14 50 0
-3 -14 -50 0
1 15 17 0
-1 -15 -17 0
2 15 34 0
-2 -15 -34 0
3 15 51 0
-3 -15 -51 0
1 16 18 0
-1 -16 -18 0
2 16 35 0
-2 -16 -35 0
3 16 52 0
-3 -16 -52 0
1 17 19 0
-1 -17 -19 0
2 17 36 0
-2 -17 -36 0
3 17 53 0
-3 -17 -53 0
1 18 20 0
-1 -18 -20 0
2 18 37 0
-2 -18 -37 0
3 18 54 0
-3 -18 -54 0
1 19 21 0
-1 -19 -21 0
2 19 38 0
-2 -19 -38 0
3 19 55 0
-3 -19 -55 0
1 20 22 0
-1 -20 -22 0
2 20 39 0
-2 -20 -39 0
3 20 56 0
-3 -20 -56 0
1 21 23 0
-1 -21 -23 0
2 21 40 0
-2 -21 -40 0
3 21 57 0
-3 -21 -57 0
1 22 24 0
-1 -22 -24 0
2 22 41 0
-2 -22 -41 0
1 23 25 0
-1 -23 -25 0
2 23 42 0
-2 -23 -42 0
1 24 26 0
-1 -24 -26 0
2 24 43 0
-2 -24 -43 0
1 25 27 0
-1 -25 -27 0
2 25 44 0
-2 -25 -44 0
1 26 28 0
-1 -26 -28 0
2 26 45 0
-2 -26 -45 0
1 27 29 0
-1 -27 -29 0
2 27 46 0
-2 -27 -46 0
1 28 30 0
-1 -28 -30 0
2 28 47 0
-2 -28 -47 0
1 29 31 0
-1 -29 -31 0
2 29 48 0
-2 -29 -48 0
1 30 32 0
-1 -30 -32 0
2 30 49 0
-2 -30 -49 0
1 31 33 0
-1 -31 -33 0
2 31 50 0
-2 -31 -50 0
1 32 34 0
-1 -32 -34 0
2 32 51 0
-2 -32 -51 0
1 33 35 0
-1 -33 -35 0
2 33 52 0
-2 -33 -52 0
1 34 36 0
-1 -34 -36 0
2 34 53 0
-2 -34 -53 0
1 35 37 0
-1 -35 -37 0
2 35 54 0
-2 -35 -54 0
1 36 38 0
-1 -36 -38 0
2 36 55 0
-2 -36 -55 0
1 37 39 0
-1 -37 -39 0
2 37 56 0
-2 -37 -56 0
1 38 40 0
-1 -38 -40 0
2 38 57 0
-2 -38 -57 0
1 39 41 0
-1 -39 -41 0
1 40 42 0
-1 -40 -42 0
1 41 43 0
-1 -41 -43 0
1 42 44 0
-1 -42 -44 0
1 43 45 0
-1 -43 -45 0
1 44 46 0
-1 -44 -46 0
1 45 47 0
-1 -45 -47 0
1 46 48 0
-1 -46 -48 0
1 47 49 0
-1 -47 -49 0
1 48 50 0
-1 -48 -50 0
1 49 51 0
-1 -49 -51 0
1 50 52 0
-1 -50 -52 0
1 51 53 0
-1 -51 -53 0
1 52 54 0
-1 -52 -54 0
1 53 55 0
-1 -53 -55 0
1 54 56 0
-1 -54 -56 0
1 55 57 0
-1 -55 -57 0
