certificates/rado_a17_c15_N57.drat
1 -56 4 0
-1 -57 0
-57 0
4 0
-1 56 0
1 0
-3 0
-54 0
-6 0
-2 0
56 0
39 0
21 0
18 0
25 0
42 0
38 0
22 0
35 0
-41 0
-37 0
-23 0
-19 0
-20 0
-16 0
-27 0
-44 0
-40 0
-36 0
-24 0
-33 0
5 0
55 0
52 0
46 0
8 0
17 0
43 0
14 0
-7 0
-53 0
-50 0
-48 0
-10 0
-15 0
-45 0
-12 0
26 0
34 0
31 0
0
